Data path: /scratch/opt/lxu/CFLG/benchmarks/tree_B
Instance: treeB.100.15
Result path: /scratch/opt/lxu/CFLG/results/tree_B
Solver: Gurobi
Time limit: 7200
Formulation: LEVFP
Cover: Small
julia --project=. src/main.jl /scratch/opt/lxu/CFLG/benchmarks/tree_B treeB.100.15 /scratch/opt/lxu/CFLG/results/tree_B Gurobi 7200 LEVFP Small
The latest version of Julia in the `release` channel is 1.11.6+0.x64.linux.gnu. You currently have `1.11.4+0.x64.linux.gnu` installed. Run:

  juliaup update

in your terminal shell to install Julia 1.11.6+0.x64.linux.gnu and update the `release` channel to that version.
/scratch/opt/lxu/CFLG/benchmarks/tree_B Gurobi 7200.0 /scratch/opt/lxu/CFLG/results/tree_B treeB.100.15 LEVFP Small
/scratch/opt/lxu/CFLG/benchmarks/tree_B/treeB.100.15

 read graph
data loaded


after absorb:76 100

max_piece:18
problem_graph/original graph: node: 76/100 edge: 90/114 dlt: 0.36987371454793094 break_avg_len: 1.8740268203761834 break_max_len: 6.139720590219355elapsed CPU time: 0.037011 seconds
Set parameter TokenServer to value "solice01.zib.de"
Set parameter Threads to value 1
Set parameter OutputFlag to value 1
Set parameter MIPGap to value 0.0001
Set parameter TimeLimit to value 7199.962989

 model loaded

Gurobi Optimizer version 12.0.1 build v12.0.1rc0 (linux64 - "Debian GNU/Linux 12 (bookworm)")

CPU model: Intel(R) Xeon(R) Gold 5122 CPU @ 3.60GHz, instruction set [SSE2|AVX|AVX2|AVX512]
Thread count: 8 physical cores, 16 logical processors, using up to 1 threads

Non-default parameters:
TimeLimit  7199.962989
Threads  1

Optimize a model with 1550 rows, 844 columns and 3474 nonzeros
Model fingerprint: 0x87f4453f
Variable types: 166 continuous, 678 integer (678 binary)
Coefficient statistics:
  Matrix range     [2e-06, 1e+00]
  Objective range  [1e+00, 1e+00]
  Bounds range     [4e-01, 7e-01]
  RHS range        [4e-04, 4e+00]
Found heuristic solution: objective 308.0000000
Presolve removed 1040 rows and 462 columns
Presolve time: 0.01s
Presolved: 510 rows, 382 columns, 1508 nonzeros
Variable types: 134 continuous, 248 integer (248 binary)
Found heuristic solution: objective 282.0000000

Root relaxation: objective 1.955110e+02, 405 iterations, 0.00 seconds (0.00 work units)

    Nodes    |    Current Node    |     Objective Bounds      |     Work
 Expl Unexpl |  Obj  Depth IntInf | Incumbent    BestBd   Gap | It/Node Time

     0     0  195.51096    0  132  282.00000  195.51096  30.7%     -    0s
H    0     0                     245.0000000  195.51096  20.2%     -    0s
H    0     0                     237.0000000  195.51096  17.5%     -    0s
H    0     0                     235.0000000  195.51096  16.8%     -    0s
     0     0  209.30409    0   98  235.00000  209.30409  10.9%     -    0s
H    0     0                     231.0000000  209.54132  9.29%     -    0s
H    0     0                     229.0000000  209.54132  8.50%     -    0s
     0     0  210.44310    0  102  229.00000  210.44310  8.10%     -    0s
     0     0  210.47244    0  100  229.00000  210.47244  8.09%     -    0s
     0     0  210.47257    0  100  229.00000  210.47257  8.09%     -    0s
     0     0  213.10268    0  100  229.00000  213.10268  6.94%     -    0s
H    0     0                     225.0000000  213.19605  5.25%     -    0s
H    0     0                     224.0000000  213.19605  4.82%     -    0s
     0     0  213.68449    0  103  224.00000  213.68449  4.61%     -    0s
     0     0  213.68775    0  105  224.00000  213.68775  4.60%     -    0s
     0     0  214.31209    0  112  224.00000  214.31209  4.32%     -    0s
     0     0  214.81209    0  103  224.00000  214.81209  4.10%     -    0s
     0     0  214.81209    0  108  224.00000  214.81209  4.10%     -    0s
     0     0  214.81209    0  110  224.00000  214.81209  4.10%     -    0s
H    0     0                     223.0000000  214.81209  3.67%     -    0s
     0     0  214.81209    0  109  223.00000  214.81209  3.67%     -    0s
     0     0  214.81209    0  109  223.00000  214.81209  3.67%     -    0s
     0     0  215.16250    0   89  223.00000  215.16250  3.51%     -    0s
     0     2  215.16250    0   80  223.00000  215.16250  3.51%     -    0s
H  367   282                     222.0000000  215.21806  3.05%  10.9    0s
*  388   248              59     221.0000000  215.21806  2.62%  10.8    0s
  3477  1530  219.36040   32   77  221.00000  218.14213  1.29%  22.1    5s
* 5898   830              51     220.0000000  218.26512  0.79%  21.1    7s
  7721   712  218.84490   31   71  220.00000  218.57282  0.65%  23.1   10s
 11608    11     cutoff   26       220.00000  219.00000  0.45%  25.0   15s

Cutting planes:
  Learned: 45
  Gomory: 33
  Cover: 167
  Implied bound: 4
  Clique: 4
  MIR: 178
  Mixing: 6
  StrongCG: 10
  Flow cover: 486
  GUB cover: 6
  Inf proof: 4
  Zero half: 18
  RLT: 18
  Relax-and-lift: 6
  BQP: 6

Explored 13090 nodes (330324 simplex iterations) in 18.34 seconds (12.31 work units)
Thread count was 1 (of 16 available processors)

Solution count 10: 220 221 222 ... 237

Optimal solution found (tolerance 1.00e-04)
Best objective 2.200000000000e+02, best bound 2.200000000000e+02, gap 0.0000%

User-callback calls 34156, time in user-callback 0.03 sec
Stat(MathOptInterface.OPTIMAL, 220.0, 220.0, 0.0, 8.4e-323, 0.037011, 18.336868047714233, 13090, Main.CFLG.LEVFP, "", #undef)
